HeuristicsProject/solutions/greedy_ls/camera_K8_N15_0.sol
z =     712.00;
Covered crossing-day pairs: 105 / 105
Assignments (modelId, crossingId, pattern):
  Model 2 -> Crossing 8, Pattern: (0, 1, 1, 1, 1, 1, 1)
  Model 2 -> Crossing 11, Pattern: (1, 0, 1, 1, 1, 1, 1)
  Model 2 -> Crossing 2, Pattern: (0, 1, 1, 1, 1, 1, 1)
  Model 2 -> Crossing 1, Pattern: (1, 0, 0, 0, 0, 0, 1)
  Model 1 -> Crossing 5, Pattern: (1, 1, 0, 0, 0, 0, 0)
  Model 2 -> Crossing 10, Pattern: (0, 0, 1, 1, 1, 1, 1)
  Model 2 -> Crossing 4, Pattern: (0, 0, 1, 1, 1, 1, 0)
  Model 2 -> Crossing 9, Pattern: (1, 1, 0, 0, 0, 0, 0)
  Model 2 -> Crossing 3, Pattern: (1, 0, 0, 0, 0, 0, 1)
  Model 2 -> Crossing 6, Pattern: (1, 0, 0, 0, 0, 0, 1)
